Version identifier: 20.1.0.0 | 2020-11-10 | 9bedb6d68
CPXPARAM_Threads                                 1
CPXPARAM_TimeLimit                               7200
CPXPARAM_MIP_Tolerances_MIPGap                   0
Generic callback                                 0x60
1 of 1 MIP starts provided solutions.
MIP start 'm1' defined initial solution with objective 1091.9822.
Tried aggregator 1 time.
Reduced MIP has 400501 rows, 400801 columns, and 1200800 nonzeros.
Reduced MIP has 800 binaries, 0 generals, 0 SOSs, and 0 indicators.
Presolve time = 0.42 sec. (379.65 ticks)
Probing time = 0.06 sec. (50.06 ticks)
Tried aggregator 1 time.
Reduced MIP has 400501 rows, 400801 columns, and 1200800 nonzeros.
Reduced MIP has 800 binaries, 0 generals, 0 SOSs, and 0 indicators.
Presolve time = 0.39 sec. (373.16 ticks)
Probing time = 0.05 sec. (50.06 ticks)
MIP emphasis: balance optimality and feasibility.
MIP search method: dynamic search.
Parallel mode: none, using 1 thread.
Root relaxation solution time = 0.13 sec. (154.23 ticks)

        Nodes                                         Cuts/
   Node  Left     Objective  IInf  Best Integer    Best Bound    ItCnt     Gap

*     0+    0                         1091.9822     2716.0000           148.72%
      0     0     1109.2813     4     1091.9822     2716.0000        0  148.72%
      0     2     1109.2813     4     1091.9822     1109.2813        0    1.58%
Elapsed time = 200.41 sec. (154749.70 ticks, tree = 0.01 MB, solutions = 1)
      1     3     1109.2679     4     1091.9822     1109.2812      175    1.58%
      2     4     1109.2624     2     1091.9822     1109.2679      523    1.58%
      3     5     1109.2182    15     1091.9822     1109.2679     3652    1.58%
*     4     4      integral     0     1109.2536     1109.2679     3687    0.00%
      4     2     1109.2536     0     1109.2536     1109.2679     3687    0.00%
      5     1        cutoff           1109.2536     1109.2678     3710    0.00%
      6     2     1109.2561     2     1109.2536     1109.2561     3875    0.00%
      7     1        cutoff           1109.2536     1109.2561     3881    0.00%
      8     0        cutoff           1109.2536     1109.2536     3895    0.00%

User cuts applied:  3

Root node processing (before b&c):
  Real time             =  200.35 sec. (154686.89 ticks)
Sequential b&c:
  Real time             =   69.86 sec. (40379.96 ticks)
                          ------------
Total (root+branch&cut) =  270.21 sec. (195066.85 ticks)
@Parameters: 
is_S_cut                                true
is_add_all_yinF                         true
is_start_value                          true
is_usercut                              true
is_visualization                        false
uc_only_rootnode                        false

data                                    Qi
fn                                      data/Qi/instance_500_800.csv
mode                                    ZLP
solver                                  cplex

p                                       5
r                                       10

EPS                                     1.0e-06
EPS_vio                                 1.0e-04
beta                                    0.10
gap                                     0.00
nodelimit                               Inf
timelimit                               7200.00


@PrintInfos
ItCnt: 3895
Current gap: 0.00 %
Termination Status: OPTIMAL
Primal Status: FEASIBLE_POINT
Solve Time: 270.21 sec
Objective Value: 1109.253634
Number of Nodes:      9

CutInfo: [phase] num / time (sec) 
ZLP             [phase1]     0 / 0.00 [rLC]     4 / 7.14 [rUC]     0 / 1.93 [sLC]     0 / 0.92 [sUC]     1 / 9.73 
OldSubmodular   [phase1]     0 / 0.00 [rLC]     0 / 0.00 [rUC]     0 / 0.00 [sLC]     0 / 0.00 [sUC]     0 / 0.00 
NewSubmodular   [phase1]     0 / 0.00 [rLC]     0 / 0.00 [rUC]     0 / 0.00 [sLC]     0 / 0.00 [sUC]     0 / 0.00 
PMP             [phase1]     0 / 0.00 [rLC]     5 / 4.12 [rUC]     2 / 1.32 [sLC]     1 / 0.72 [sUC]     9 / 6.83 
Separation Round: [phase1] 0  [rLC] 5  [rUC] 2  [sLC] 1  [sUC] 9
Root Best Bound 1109.267877
Root Best Integer: 1091.982165
Best Bound: 1109.253634
Best Integer: 1109.253634

